c
p cnf 12 61
12 1 0
-7 2 0
8 -1 0
5 -4 0
12 3 0
6 5 0
4 -9 0
10 -9 0
-11 10 0
6 -8 0
-10 6 0
-5 -2 0
-3 -8 0
-11 5 0
-12 2 0
-1 6 0
7 10 0
-3 9 0
-4 10 0
12 -6 0
11 -10 0
10 -6 0
-9 -11 0
6 -12 0
10 -12 0
-7 -2 0
3 -1 0
1 -12 0
-11 3 0
-1 2 0
4 10 0
10 8 0
3 4 0
-7 -11 0
4 -1 0
7 3 0
2 -11 0
-12 -1 0
-10 -12 0
-10 2 0
1 -7 0
-4 -7 0
-8 10 0
-1 3 0
-4 -6 0
-1 -8 0
1 -4 0
7 -4 0
-10 -11 0
6 -3 0
-8 2 0
10 -11 0
12 -10 0
3 6 0
8 1 0
-1 -11 0
-2 11 0
-2 -9 0
-8 -5 0
-6 11 0
5 10 0
